45,14,19,38,47,56,59,28,72,61,32,30,43,40,33,17,55,7,53,23,46,16,35,44,18,4,34,37,42,29,25,62,63,48,13,8,24,65,12,41,70,36,21,10,0,76,50,1,9,26,52,58,71,27,3,68,22,66,11,15,67,6,31,39,74,77,64,73,20,60,75,5,69,51,49,2,54,57
